3 16 1 10
13 6 8 18 12 11 4 17 4 5 15 5 16 20 20 16 
13.62 3.01 8.7 7.51 1.44 8.04 7.82 2.76 14.85 4.77 12.6 4.3 7.76 14.19 7.28 8.05 
8 8 8 8 8 8 8 8 8 8 8 8 8 8 8 8 
3.49 9.16 2.84 5.48 1.18 9.75 14.28 1.93 10.24 0.62 2.29 16 6.63 4.29 0.79 4.12 
1 1 1 1 1 1 1 1 1 1 1 1 1 1 1 1 
1 1 1 1 1 1 1 1 1 1 1 1 1 1 1 1 
1 1 1 1 1 1 1 1 1 1 1 1 1 1 1 1 
0.01 0.01 0.01 0.01 0.01 0.01 0.01 0.01 0.01 0.01 0.01 0.01 0.01 0.01 0.01 0.01 
0.02 0.02 0.02 0.02 0.02 0.02 0.02 0.02 0.02 0.02 0.02 0.02 0.02 0.02 0.02 0.02 
1 1 1 1 1 1 1 1 1 1 1 1 1 1 1 1 
